-729 -781 0
-781 0
57 0
729 0
-53 0
-5 0
1 0
105 0
681 0
153 0
-725 0
-109 0
-677 0
-157 0
-733 0
-629 0
-205 0
-101 0
49 0
625 0
209 0
40 0
44 0
48 0
9 0
577 0
777 0
257 0
36 0
633 0
529 0
305 0
32 0
201 0
-773 0
-685 0
-149 0
-45 0
-573 0
0
